NAME F-JSSP-SDST
ROWS
 N  OBJ
 E  c0      
 E  c1      
 E  c2      
 E  c3      
 E  c4      
 E  c5      
 L  c6      
 L  c7      
 L  c8      
 L  c9      
 L  c10     
 L  c11     
 L  c12     
 L  c13     
 L  c14     
 L  c15     
 G  c16     
 G  c17     
 G  c18     
 G  c19     
 G  c20     
 G  c21     
 G  c22     
 G  c23     
 G  c24     
 G  c25     
 G  c26     
 G  c27     
 G  c28     
 G  c29     
 G  c30     
 G  c31     
 G  c32     
 G  c33     
 G  c34     
 G  c35     
 G  c36     
 G  c37     
 G  c38     
 G  c39     
 G  c40     
 G  c41     
 G  c42     
 G  c43     
 G  c44     
 G  c45     
 G  c46     
 G  c47     
 G  c48     
 G  c49     
 G  c50     
 G  c51     
 G  c52     
 G  c53     
 G  c54     
 G  c55     
 G  c56     
 G  c57     
 G  c58     
 G  c59     
 G  c60     
 G  c61     
 G  c62     
 G  c63     
 G  c64     
 G  c65     
 G  c66     
 G  c67     
 G  c68     
 G  c69     
 G  c70     
 G  c71     
 G  c72     
 G  c73     
 G  c74     
 G  c75     
 L  c76     
 G  c77     
 L  c78     
 G  c79     
 L  c80     
 G  c81     
 L  c82     
 G  c83     
 L  c84     
 G  c85     
COLUMNS
    MARKER    'MARKER'                 'INTORG'
    B0(11)    c0        1
    B0(11)    c6        -1000000000
    B0(11)    c16       -43
    B0(11)    c17       -1000000043
    B0(11)    c23       -1000000000
    B0(11)    c24       -1000000000
    B0(11)    c25       -1000000000
    B0(11)    c26       -1000000000
    B0(11)    c27       -1000000000
    B0(11)    c28       -1000000000
    B0(11)    c55       -12
    B1(12)    c1        1
    B1(12)    c7        -1000000000
    B1(12)    c17       -1000000000
    B1(12)    c29       -1000000000
    B1(12)    c30       -1000000000
    B1(12)    c35       -1000000000
    B1(12)    c36       -1000000000
    B1(12)    c39       -1000000000
    B1(12)    c40       -1000000000
    B1(12)    c57       -12
    B1(12)    c75       87
    B1(12)    c76       87
    B2(13)    c1        1
    B2(13)    c8        -1000000000
    B2(13)    c31       -1000000000
    B2(13)    c32       -1000000000
    B2(13)    c33       -1000000000
    B2(13)    c34       -1000000000
    B2(13)    c37       -1000000000
    B2(13)    c38       -1000000000
    B2(13)    c41       -1000000000
    B2(13)    c42       -1000000000
    B2(13)    c59       -12
    B2(13)    c77       95
    B2(13)    c78       95
    B3(12)    c2        1
    B3(12)    c9        -1000000000
    B3(12)    c18       -63
    B3(12)    c19       -63
    B3(12)    c23       -1000000000
    B3(12)    c24       -1000000000
    B3(12)    c29       -1000000000
    B3(12)    c30       -1000000000
    B3(12)    c43       -1000000000
    B3(12)    c44       -1000000000
    B3(12)    c47       -1000000000
    B3(12)    c48       -1000000000
    B4(10)    c2        1
    B4(10)    c10       -1000000000
    B4(10)    c18       -53
    B4(10)    c19       -1000000053
    B4(10)    c31       -1000000000
    B4(10)    c32       -1000000000
    B4(10)    c45       -1000000000
    B4(10)    c46       -1000000000
    B4(10)    c49       -1000000000
    B4(10)    c50       -1000000000
    B5(11)    c3        1
    B5(11)    c11       -1000000000
    B5(11)    c19       -1000000000
    B5(11)    c33       -1000000000
    B5(11)    c34       -1000000000
    B5(11)    c51       -1000000000
    B5(11)    c52       -1000000000
    B5(11)    c53       -1000000000
    B5(11)    c54       -1000000000
    B5(11)    c79       73
    B5(11)    c80       73
    B6(12)    c4        1
    B6(12)    c12       -1000000000
    B6(12)    c20       -125
    B6(12)    c21       -1000000125
    B6(12)    c22       -125
    B6(12)    c25       -1000000000
    B6(12)    c26       -1000000000
    B6(12)    c35       -1000000000
    B6(12)    c36       -1000000000
    B6(12)    c43       -1000000000
    B6(12)    c44       -1000000000
    B6(12)    c67       -8
    B7(12)    c4        1
    B7(12)    c13       -1000000000
    B7(12)    c20       -135
    B7(12)    c21       -135
    B7(12)    c22       -1000000135
    B7(12)    c37       -1000000000
    B7(12)    c38       -1000000000
    B7(12)    c45       -1000000000
    B7(12)    c46       -1000000000
    B7(12)    c51       -1000000000
    B7(12)    c52       -1000000000
    B7(12)    c69       -8
    B8(12)    c5        1
    B8(12)    c14       -1000000000
    B8(12)    c21       -1000000000
    B8(12)    c27       -1000000000
    B8(12)    c28       -1000000000
    B8(12)    c39       -1000000000
    B8(12)    c40       -1000000000
    B8(12)    c47       -1000000000
    B8(12)    c48       -1000000000
    B8(12)    c71       -8
    B8(12)    c81       43
    B8(12)    c82       43
    B9(12)    c5        1
    B9(12)    c15       -1000000000
    B9(12)    c22       -1000000000
    B9(12)    c41       -1000000000
    B9(12)    c42       -1000000000
    B9(12)    c49       -1000000000
    B9(12)    c50       -1000000000
    B9(12)    c53       -1000000000
    B9(12)    c54       -1000000000
    B9(12)    c73       -8
    B9(12)    c83       61
    B9(12)    c84       61
    B10(0)    OBJ       0
    B11(0)    OBJ       0
    B12(2)    c23       -1000000000
    B12(2)    c24       1000000000
    B13(0)    OBJ       0
    B14(2)    c25       -1000000000
    B14(2)    c26       1000000000
    B15(2)    c27       -1000000000
    B15(2)    c28       1000000000
    B16(0)    OBJ       0
    B17(0)    OBJ       0
    B18(4)    c29       -1000000000
    B18(4)    c30       1000000000
    B18(4)    c31       -1000000000
    B18(4)    c32       1000000000
    B19(2)    c33       -1000000000
    B19(2)    c34       1000000000
    B20(4)    c35       -1000000000
    B20(4)    c36       1000000000
    B20(4)    c37       -1000000000
    B20(4)    c38       1000000000
    B21(4)    c39       -1000000000
    B21(4)    c40       1000000000
    B21(4)    c41       -1000000000
    B21(4)    c42       1000000000
    B22(0)    OBJ       0
    B23(0)    OBJ       0
    B24(0)    OBJ       0
    B25(0)    OBJ       0
    B26(4)    c43       -1000000000
    B26(4)    c44       1000000000
    B26(4)    c45       -1000000000
    B26(4)    c46       1000000000
    B27(4)    c47       -1000000000
    B27(4)    c48       1000000000
    B27(4)    c49       -1000000000
    B27(4)    c50       1000000000
    B28(0)    OBJ       0
    B29(0)    OBJ       0
    B30(0)    OBJ       0
    B31(0)    OBJ       0
    B32(2)    c51       -1000000000
    B32(2)    c52       1000000000
    B33(2)    c53       -1000000000
    B33(2)    c54       1000000000
    B34(0)    OBJ       0
    B35(0)    OBJ       0
    B36(0)    OBJ       0
    B37(0)    OBJ       0
    B38(0)    OBJ       0
    B39(0)    OBJ       0
    B40(0)    OBJ       0
    B41(0)    OBJ       0
    B42(0)    OBJ       0
    B43(0)    OBJ       0
    B44(0)    OBJ       0
    B45(0)    OBJ       0
    I46(11)   c6        1
    I46(11)   c16       -1
    I46(11)   c17       -1
    I46(11)   c23       1
    I46(11)   c24       -1
    I46(11)   c25       1
    I46(11)   c26       -1
    I46(11)   c27       1
    I46(11)   c28       -1
    I46(11)   c55       1
    I46(11)   c56       1
    I47(14)   c7        1
    I47(14)   c16       1
    I47(14)   c17       1
    I47(14)   c29       1
    I47(14)   c30       -1
    I47(14)   c35       1
    I47(14)   c36       -1
    I47(14)   c39       1
    I47(14)   c40       -1
    I47(14)   c57       1
    I47(14)   c58       1
    I47(14)   c75       1
    I47(14)   c76       1
    I47(14)   c85       -1
    I48(16)   c8        1
    I48(16)   c16       1
    I48(16)   c17       1
    I48(16)   c31       1
    I48(16)   c32       -1
    I48(16)   c33       1
    I48(16)   c34       -1
    I48(16)   c37       1
    I48(16)   c38       -1
    I48(16)   c41       1
    I48(16)   c42       -1
    I48(16)   c59       1
    I48(16)   c60       1
    I48(16)   c77       1
    I48(16)   c78       1
    I48(16)   c85       -1
    I49(13)   c9        1
    I49(13)   c18       -1
    I49(13)   c19       -1
    I49(13)   c23       -1
    I49(13)   c24       1
    I49(13)   c29       -1
    I49(13)   c30       1
    I49(13)   c43       1
    I49(13)   c44       -1
    I49(13)   c47       1
    I49(13)   c48       -1
    I49(13)   c61       1
    I49(13)   c62       1
    I50(11)   c10       1
    I50(11)   c18       -1
    I50(11)   c19       -1
    I50(11)   c31       -1
    I50(11)   c32       1
    I50(11)   c45       1
    I50(11)   c46       -1
    I50(11)   c49       1
    I50(11)   c50       -1
    I50(11)   c63       1
    I50(11)   c64       1
    I51(14)   c11       1
    I51(14)   c18       1
    I51(14)   c19       1
    I51(14)   c33       -1
    I51(14)   c34       1
    I51(14)   c51       1
    I51(14)   c52       -1
    I51(14)   c53       1
    I51(14)   c54       -1
    I51(14)   c65       1
    I51(14)   c66       1
    I51(14)   c79       1
    I51(14)   c80       1
    I51(14)   c85       -1
    I52(12)   c12       1
    I52(12)   c20       -1
    I52(12)   c21       -1
    I52(12)   c22       -1
    I52(12)   c25       -1
    I52(12)   c26       1
    I52(12)   c35       -1
    I52(12)   c36       1
    I52(12)   c43       -1
    I52(12)   c44       1
    I52(12)   c67       1
    I52(12)   c68       1
    I53(12)   c13       1
    I53(12)   c20       -1
    I53(12)   c21       -1
    I53(12)   c22       -1
    I53(12)   c37       -1
    I53(12)   c38       1
    I53(12)   c45       -1
    I53(12)   c46       1
    I53(12)   c51       -1
    I53(12)   c52       1
    I53(12)   c69       1
    I53(12)   c70       1
    I54(15)   c14       1
    I54(15)   c20       1
    I54(15)   c21       1
    I54(15)   c22       1
    I54(15)   c27       -1
    I54(15)   c28       1
    I54(15)   c39       -1
    I54(15)   c40       1
    I54(15)   c47       -1
    I54(15)   c48       1
    I54(15)   c71       1
    I54(15)   c72       1
    I54(15)   c81       1
    I54(15)   c82       1
    I54(15)   c85       -1
    I55(15)   c15       1
    I55(15)   c20       1
    I55(15)   c21       1
    I55(15)   c22       1
    I55(15)   c41       -1
    I55(15)   c42       1
    I55(15)   c49       -1
    I55(15)   c50       1
    I55(15)   c53       -1
    I55(15)   c54       1
    I55(15)   c73       1
    I55(15)   c74       1
    I55(15)   c83       1
    I55(15)   c84       1
    I55(15)   c85       -1
    I56(1)    OBJ       1
    I56(1)    c85       1
    B57(0)    OBJ       0
    B58(3)    c75       -1000000000
    B58(3)    c76       -1000000000
    B58(3)    c85       -22
    B59(3)    c77       -1000000000
    B59(3)    c78       -1000000000
    B59(3)    c85       -30
    B60(0)    OBJ       0
    B61(0)    OBJ       0
    B62(3)    c79       -1000000000
    B62(3)    c80       -1000000000
    B62(3)    c85       -15
    B63(0)    OBJ       0
    B64(0)    OBJ       0
    B65(3)    c81       -1000000000
    B65(3)    c82       -1000000000
    B65(3)    c85       -11
    B66(3)    c83       -1000000000
    B66(3)    c84       -1000000000
    B66(3)    c85       -29
    MARKER    'MARKER'                 'INTEND'
RHS
    RHS1      c0        1
    RHS1      c1        1
    RHS1      c2        1
    RHS1      c3        1
    RHS1      c4        1
    RHS1      c5        1
    RHS1      c17       -1999999993
    RHS1      c19       -1999999993
    RHS1      c21       -1999999991
    RHS1      c22       -1999999991
    RHS1      c23       -2999999930
    RHS1      c24       -1999999948
    RHS1      c25       -2999999867
    RHS1      c26       -1999999949
    RHS1      c27       -2999999949
    RHS1      c28       -1999999950
    RHS1      c29       -2999999930
    RHS1      c30       -1999999905
    RHS1      c31       -2999999941
    RHS1      c32       -1999999896
    RHS1      c33       -2999999919
    RHS1      c34       -1999999899
    RHS1      c35       -2999999867
    RHS1      c36       -1999999903
    RHS1      c37       -2999999858
    RHS1      c38       -1999999896
    RHS1      c39       -2999999950
    RHS1      c40       -1999999906
    RHS1      c41       -2999999932
    RHS1      c42       -1999999899
    RHS1      c43       -2999999869
    RHS1      c44       -1999999930
    RHS1      c45       -2999999857
    RHS1      c46       -1999999940
    RHS1      c47       -2999999949
    RHS1      c48       -1999999930
    RHS1      c49       -2999999930
    RHS1      c50       -1999999941
    RHS1      c51       -2999999857
    RHS1      c52       -1999999920
    RHS1      c53       -2999999931
    RHS1      c54       -1999999920
    RHS1      c75       -999999935
    RHS1      c76       65
    RHS1      c77       -999999935
    RHS1      c78       65
    RHS1      c79       -999999942
    RHS1      c80       58
    RHS1      c81       -999999968
    RHS1      c82       32
    RHS1      c83       -999999968
    RHS1      c84       32
BOUNDS
 BV BND1      B0(11)  
 BV BND1      B1(12)  
 BV BND1      B2(13)  
 BV BND1      B3(12)  
 BV BND1      B4(10)  
 BV BND1      B5(11)  
 BV BND1      B6(12)  
 BV BND1      B7(12)  
 BV BND1      B8(12)  
 BV BND1      B9(12)  
 BV BND1      B10(0)  
 BV BND1      B11(0)  
 BV BND1      B12(2)  
 BV BND1      B13(0)  
 BV BND1      B14(2)  
 BV BND1      B15(2)  
 BV BND1      B16(0)  
 BV BND1      B17(0)  
 BV BND1      B18(4)  
 BV BND1      B19(2)  
 BV BND1      B20(4)  
 BV BND1      B21(4)  
 BV BND1      B22(0)  
 BV BND1      B23(0)  
 BV BND1      B24(0)  
 BV BND1      B25(0)  
 BV BND1      B26(4)  
 BV BND1      B27(4)  
 BV BND1      B28(0)  
 BV BND1      B29(0)  
 BV BND1      B30(0)  
 BV BND1      B31(0)  
 BV BND1      B32(2)  
 BV BND1      B33(2)  
 BV BND1      B34(0)  
 BV BND1      B35(0)  
 BV BND1      B36(0)  
 BV BND1      B37(0)  
 BV BND1      B38(0)  
 BV BND1      B39(0)  
 BV BND1      B40(0)  
 BV BND1      B41(0)  
 BV BND1      B42(0)  
 BV BND1      B43(0)  
 BV BND1      B44(0)  
 BV BND1      B45(0)  
 LI BND1      I46(11)   0
 LI BND1      I47(14)   0
 LI BND1      I48(16)   0
 LI BND1      I49(13)   0
 LI BND1      I50(11)   0
 LI BND1      I51(14)   0
 LI BND1      I52(12)   0
 LI BND1      I53(12)   0
 LI BND1      I54(15)   0
 LI BND1      I55(15)   0
 LI BND1      I56(1)    0
 BV BND1      B57(0)  
 BV BND1      B58(3)  
 BV BND1      B59(3)  
 BV BND1      B60(0)  
 BV BND1      B61(0)  
 BV BND1      B62(3)  
 BV BND1      B63(0)  
 BV BND1      B64(0)  
 BV BND1      B65(3)  
 BV BND1      B66(3)  
ENDATA
